
Gurobi 7.5.2 (linux64) logging started Sat Jun 23 17:51:26 2018

Changed value of parameter LogFile to result/ilp/simNo_7-n_100-m_40-s_4-minVAF_0.05-cov_2000-k_2-fn_0.10-fp_0.0001-na_0.15.ILP.gurobiSolverLog
   Prev: gurobi.log  Default: 
Changed value of parameter TimeLimit to 86400.0
   Prev: 1e+100  Min: 0.0  Max: 1e+100  Default: 1e+100
Optimize a model with 1265601 rows, 330440 columns and 3489120 nonzeros
Variable types: 0 continuous, 330440 integer (330440 binary)
Coefficient statistics:
  Matrix range     [3e-03, 4e+00]
  Objective range  [3e-01, 9e+00]
  Bounds range     [1e+00, 1e+00]
  RHS range        [4e-01, 2e+00]
Found heuristic solution: objective -17606.18500
Presolve removed 324737 rows and 215569 columns (presolve time = 5s) ...
Presolve removed 341739 rows and 215569 columns (presolve time = 10s) ...
Presolve removed 342201 rows and 215569 columns (presolve time = 15s) ...
Presolve removed 342201 rows and 215569 columns (presolve time = 20s) ...
Presolve removed 342201 rows and 215569 columns (presolve time = 25s) ...
Presolve removed 342201 rows and 215569 columns (presolve time = 31s) ...
Presolve removed 342201 rows and 215569 columns (presolve time = 35s) ...
Presolve removed 342201 rows and 215569 columns (presolve time = 40s) ...
Presolve removed 342201 rows and 215569 columns (presolve time = 49s) ...
Presolve removed 342201 rows and 215569 columns (presolve time = 53s) ...
Presolve removed 342201 rows and 215569 columns
Presolve time: 52.54s
Presolved: 923400 rows, 114871 columns, 2560618 nonzeros
Variable types: 0 continuous, 114871 integer (114871 binary)
Presolve removed 0 rows and 0 columns (presolve time = 6s) ...
Presolved: 114871 rows, 1038271 columns, 2675489 nonzeros

Presolve removed 114871 rows and 1038271 columns

Root simplex log...

Iteration    Objective       Primal Inf.    Dual Inf.      Time
       0    1.5690731e+01   0.000000e+00   1.126380e+05     68s
    7975   -1.4893632e+02   0.000000e+00   7.742500e+04     70s
   19945   -2.3573178e+02   0.000000e+00   8.071469e+05     76s
   29065   -2.6497960e+02   0.000000e+00   1.300112e+05     80s
   38185   -2.8706886e+02   0.000000e+00   1.470000e+02     85s
   38813   -2.8723683e+02   0.000000e+00   0.000000e+00     86s
   38813   -2.8723683e+02   0.000000e+00   0.000000e+00     90s

Root relaxation: objective -2.872368e+02, 38813 iterations, 33.37 seconds
Total elapsed time = 134.63s
Total elapsed time = 161.26s

    Nodes    |    Current Node    |     Objective Bounds      |     Work
 Expl Unexpl |  Obj  Depth IntInf | Incumbent    BestBd   Gap | It/Node Time

     0     0 -287.23683    0 1011 -17606.185 -287.23683  98.4%     -  189s
H    0     0                    -1706.831049 -287.23683  83.2%     -  208s
H    0     0                    -494.7056376 -287.23683  41.9%     -  212s
H    0     0                    -342.7340260 -287.23683  16.2%     -  215s
     0     0 -291.50137    0 1032 -342.73403 -291.50137  14.9%     -  241s
H    0     0                    -333.8644396 -291.50137  12.7%     -  252s
     0     0 -296.83203    0  973 -333.86444 -296.83203  11.1%     -  324s
     0     0 -296.83203    0  966 -333.86444 -296.83203  11.1%     -  339s
     0     0 -297.89817    0  970 -333.86444 -297.89817  10.8%     -  359s
     0     0 -297.89817    0  969 -333.86444 -297.89817  10.8%     -  374s
     0     0 -299.44137    0 1077 -333.86444 -299.44137  10.3%     -  441s
H    0     0                    -325.6758925 -299.44137  8.06%     -  448s
     0     0 -299.91843    0  860 -325.67589 -299.91843  7.91%     -  469s
     0     0 -299.91843    0  863 -325.67589 -299.91843  7.91%     -  480s
     0     0 -300.56350    0 1017 -325.67589 -300.56350  7.71%     -  511s
     0     0 -300.74119    0 1046 -325.67589 -300.74119  7.66%     -  535s
     0     0 -300.78798    0 1082 -325.67589 -300.78798  7.64%     -  548s
     0     0 -303.26782    0 1076 -325.67589 -303.26782  6.88%     -  587s
     0     0 -303.34872    0 1093 -325.67589 -303.34872  6.86%     -  611s
     0     0 -303.38185    0 1093 -325.67589 -303.38185  6.85%     -  623s
     0     0 -303.38185    0 1093 -325.67589 -303.38185  6.85%     -  628s
     0     0 -305.24910    0  899 -325.67589 -305.24910  6.27%     -  659s
     0     0 -305.24910    0  902 -325.67589 -305.24910  6.27%     -  676s
     0     0 -307.38137    0  847 -325.67589 -307.38137  5.62%     -  724s
     0     0 -307.38137    0  846 -325.67589 -307.38137  5.62%     -  745s
     0     0 -308.69277    0  967 -325.67589 -308.69277  5.21%     -  775s
     0     0 -309.04815    0  962 -325.67589 -309.04815  5.11%     -  792s
     0     0 -309.90994    0  954 -325.67589 -309.90994  4.84%     -  814s
     0     0 -309.90994    0  955 -325.67589 -309.90994  4.84%     -  830s
     0     0 -310.61102    0 1061 -325.67589 -310.61102  4.63%     -  882s
     0     0 -310.68153    0 1085 -325.67589 -310.68153  4.60%     -  907s
     0     0 -311.00525    0 1117 -325.67589 -311.00525  4.50%     -  924s
     0     0 -311.00525    0 1118 -325.67589 -311.00525  4.50%     -  933s
     0     0 -313.51866    0  806 -325.67589 -313.51866  3.73%     -  963s
     0     0 -313.53479    0  712 -325.67589 -313.53479  3.73%     -  979s
     0     0 -313.75999    0  868 -325.67589 -313.75999  3.66%     -  996s
     0     0 -313.95157    0  874 -325.67589 -313.95157  3.60%     - 1019s
     0     0 -314.22942    0  808 -325.67589 -314.22942  3.51%     - 1040s
     0     0 -314.22942    0  802 -325.67589 -314.22942  3.51%     - 1056s
     0     0 -315.29555    0  802 -325.67589 -315.29555  3.19%     - 1080s
     0     0 -315.29555    0  806 -325.67589 -315.29555  3.19%     - 1094s
     0     0 -315.29555    0  810 -325.67589 -315.29555  3.19%     - 1109s
     0     0 -315.29555    0  811 -325.67589 -315.29555  3.19%     - 1122s
     0     0 -315.44786    0  785 -325.67589 -315.44786  3.14%     - 1249s
     0     0 -315.44786    0  787 -325.67589 -315.44786  3.14%     - 1265s
     0     0 -315.82862    0  783 -325.67589 -315.82862  3.02%     - 1284s
     0     0 -316.00631    0  798 -325.67589 -316.00631  2.97%     - 1305s
     0     0 -316.12477    0  801 -325.67589 -316.12477  2.93%     - 1319s
     0     0 -316.12477    0  798 -325.67589 -316.12477  2.93%     - 1328s
     0     0 -316.14846    0  801 -325.67589 -316.14846  2.93%     - 1346s
     0     0 -316.14846    0  802 -325.67589 -316.14846  2.93%     - 1360s
     0     0 -316.71707    0  800 -325.67589 -316.71707  2.75%     - 1374s
     0     0 -316.83552    0  801 -325.67589 -316.83552  2.71%     - 1389s
     0     0 -316.89475    0  803 -325.67589 -316.89475  2.70%     - 1397s
     0     0 -316.89475    0  802 -325.67589 -316.89475  2.70%     - 1405s
     0     0 -317.30936    0  798 -325.67589 -317.30936  2.57%     - 1422s
     0     0 -317.36859    0  799 -325.67589 -317.36859  2.55%     - 1438s
     0     0 -317.39551    0  800 -325.67589 -317.39551  2.54%     - 1447s
     0     0 -317.39551    0  800 -325.67589 -317.39551  2.54%     - 1456s
     0     0 -317.78320    0  754 -325.67589 -317.78320  2.42%     - 1475s
     0     0 -317.78320    0  751 -325.67589 -317.78320  2.42%     - 1489s
     0     0 -318.13858    0  791 -325.67589 -318.13858  2.31%     - 1506s
     0     0 -318.13858    0  788 -325.67589 -318.13858  2.31%     - 1520s
     0     0 -318.13858    0  791 -325.67589 -318.13858  2.31%     - 1534s
     0     0 -318.13858    0  796 -325.67589 -318.13858  2.31%     - 1547s
     0     0 -318.18934    0  782 -325.67589 -318.18934  2.30%     - 1684s
     0     0 -318.18934    0  782 -325.67589 -318.18934  2.30%     - 1697s
     0     0 -318.18934    0  787 -325.67589 -318.18934  2.30%     - 1712s
     0     0 -318.49395    0  792 -325.67589 -318.49395  2.21%     - 1730s
     0     0 -318.49395    0  800 -325.67589 -318.49395  2.21%     - 1739s
     0     0 -318.49395    0  577 -325.67589 -318.49395  2.21%     - 1833s
     0     0 -318.49395    0  580 -325.67589 -318.49395  2.21%     - 1846s
     0     0 -318.49395    0  596 -325.67589 -318.49395  2.21%     - 1859s
     0     0 -318.49395    0  591 -325.67589 -318.49395  2.21%     - 1879s
     0     0 -318.49395    0  583 -325.67589 -318.49395  2.21%     - 1933s
     0     2 -318.49590    0  578 -325.67589 -318.49590  2.20%     - 2081s
     1     3 -319.64190    1  481 -325.67589 -318.49590  2.20%  2232 2093s
     2     2     cutoff    2      -325.67589 -318.49590  2.20%  1221 2095s
     4     2 -319.35491    1  597 -325.67589 -319.35491  1.94%   930 2109s
     5     3 -321.46510    2  506 -325.67589 -319.35491  1.94%   851 2116s
     8     2 -320.10687    2 1126 -325.67589 -320.10687  1.71%   704 2167s
     9     3 -322.58758    3  632 -325.67589 -320.36548  1.63%   788 2179s
    10     4 -322.88264    4  561 -325.67589 -320.36548  1.63%   725 2183s
    11     5 -322.88264    5  559 -325.67589 -320.36548  1.63%   664 2185s
    13     7 -322.92525    7  536 -325.67589 -320.36548  1.63%   568 2190s
    14     8 -323.55161    8  674 -325.67589 -320.36548  1.63%   553 2195s
    16     8 -323.58049    9  559 -325.67589 -320.36548  1.63%   489 2200s
    18    10 -324.72713   11  329 -325.67589 -320.36548  1.63%   445 2205s
    23     5     cutoff    4      -325.67589 -322.88264  0.86%   367 2211s
    28     0     cutoff   10      -325.67589 -325.67589  0.00%   310 2215s

Cutting planes:
  Gomory: 2
  Zero half: 185

Explored 29 nodes (112935 simplex iterations) in 2216.12 seconds
Thread count was 1 (of 80 available processors)

Solution count 6: -325.676 -333.864 -342.734 ... -17606.2

Optimal solution found (tolerance 1.00e-04)
Best objective -3.256758925040e+02, best bound -3.256758925040e+02, gap 0.0000%
